\ Model STL formula: (G[0.0, 2.0] ((x >= 3.0) & (x >= 2.0)))
\ LP format - for model browsing. Use MPS format to capture full model detail.
Maximize
  z_G_2bx191a07b7d5697586_0
Subject To
 R0: - z_G_2bx191a07b7d5697586_0 + z_G_2bx191a07b7d5697586_0_zi <= 0
 R1: - z_&_2bx152dc28e6f9c8f8a_0 + z_&_2bx152dc28e6f9c8f8a_0_zi <= 0
 R2: z_G_2bx191a07b7d5697586_0_zi + z_&_2bx152dc28e6f9c8f8a_0_zi <= 1
 R3: - z_predicate_2bx62d06a84c45d0584_0
   + z_predicate_2bx62d06a84c45d0584_0_zi <= 0
 R4: z_G_2bx191a07b7d5697586_0_zi + z_predicate_2bx62d06a84c45d0584_0_zi
   <= 1
 R5: z_&_2bx152dc28e6f9c8f8a_0_zi + z_predicate_2bx62d06a84c45d0584_0_zi
   <= 1
 R6: - 1000 z_predicate_2bx62d06a84c45d0584_0 + x_0 <= 3
 R7: - 1000 z_predicate_2bx62d06a84c45d0584_0 + x_0 >= -997
 R8: - z_predicate_2dx37fcbeb2c1be772f_0
   + z_predicate_2dx37fcbeb2c1be772f_0_zi <= 0
 R9: z_G_2bx191a07b7d5697586_0_zi + z_predicate_2dx37fcbeb2c1be772f_0_zi
   <= 1
 R10: z_&_2bx152dc28e6f9c8f8a_0_zi + z_predicate_2dx37fcbeb2c1be772f_0_zi
   <= 1
 R11: x_0 - 1000 z_predicate_2dx37fcbeb2c1be772f_0 <= 2
 R12: x_0 - 1000 z_predicate_2dx37fcbeb2c1be772f_0 >= -998
 R13: z_&_2bx152dc28e6f9c8f8a_0 - 0.5 z_predicate_2bx62d06a84c45d0584_0
   - 0.5 z_predicate_2dx37fcbeb2c1be772f_0 = 0
 R14: - z_&_2bx152dc28e6f9c8f8a_1 + z_&_2bx152dc28e6f9c8f8a_1_zi <= 0
 R15: z_G_2bx191a07b7d5697586_0_zi + z_&_2bx152dc28e6f9c8f8a_1_zi <= 1
 R16: - z_predicate_2bx62d06a84c45d0584_1
   + z_predicate_2bx62d06a84c45d0584_1_zi <= 0
 R17: z_G_2bx191a07b7d5697586_0_zi + z_predicate_2bx62d06a84c45d0584_1_zi
   <= 1
 R18: z_&_2bx152dc28e6f9c8f8a_1_zi + z_predicate_2bx62d06a84c45d0584_1_zi
   <= 1
 R19: - 1000 z_predicate_2bx62d06a84c45d0584_1 + x_1 <= 3
 R20: - 1000 z_predicate_2bx62d06a84c45d0584_1 + x_1 >= -997
 R21: - z_predicate_2dx37fcbeb2c1be772f_1
   + z_predicate_2dx37fcbeb2c1be772f_1_zi <= 0
 R22: z_G_2bx191a07b7d5697586_0_zi + z_predicate_2dx37fcbeb2c1be772f_1_zi
   <= 1
 R23: z_&_2bx152dc28e6f9c8f8a_1_zi + z_predicate_2dx37fcbeb2c1be772f_1_zi
   <= 1
 R24: x_1 - 1000 z_predicate_2dx37fcbeb2c1be772f_1 <= 2
 R25: x_1 - 1000 z_predicate_2dx37fcbeb2c1be772f_1 >= -998
 R26: z_&_2bx152dc28e6f9c8f8a_1 - 0.5 z_predicate_2bx62d06a84c45d0584_1
   - 0.5 z_predicate_2dx37fcbeb2c1be772f_1 = 0
 R27: - z_&_2bx152dc28e6f9c8f8a_2 + z_&_2bx152dc28e6f9c8f8a_2_zi <= 0
 R28: z_G_2bx191a07b7d5697586_0_zi + z_&_2bx152dc28e6f9c8f8a_2_zi <= 1
 R29: - z_predicate_2bx62d06a84c45d0584_2
   + z_predicate_2bx62d06a84c45d0584_2_zi <= 0
 R30: z_G_2bx191a07b7d5697586_0_zi + z_predicate_2bx62d06a84c45d0584_2_zi
   <= 1
 R31: z_&_2bx152dc28e6f9c8f8a_2_zi + z_predicate_2bx62d06a84c45d0584_2_zi
   <= 1
 R32: - 1000 z_predicate_2bx62d06a84c45d0584_2 + x_2 <= 3
 R33: - 1000 z_predicate_2bx62d06a84c45d0584_2 + x_2 >= -997
 R34: - z_predicate_2dx37fcbeb2c1be772f_2
   + z_predicate_2dx37fcbeb2c1be772f_2_zi <= 0
 R35: z_G_2bx191a07b7d5697586_0_zi + z_predicate_2dx37fcbeb2c1be772f_2_zi
   <= 1
 R36: z_&_2bx152dc28e6f9c8f8a_2_zi + z_predicate_2dx37fcbeb2c1be772f_2_zi
   <= 1
 R37: x_2 - 1000 z_predicate_2dx37fcbeb2c1be772f_2 <= 2
 R38: x_2 - 1000 z_predicate_2dx37fcbeb2c1be772f_2 >= -998
 R39: z_&_2bx152dc28e6f9c8f8a_2 - 0.5 z_predicate_2bx62d06a84c45d0584_2
   - 0.5 z_predicate_2dx37fcbeb2c1be772f_2 = 0
 R40: z_G_2bx191a07b7d5697586_0
   - 0.3333333333333333 z_&_2bx152dc28e6f9c8f8a_0
   - 0.3333333333333333 z_&_2bx152dc28e6f9c8f8a_1
   - 0.3333333333333333 z_&_2bx152dc28e6f9c8f8a_2 = 0
 R41: x_1 = 2
Bounds
 z_G_2bx191a07b7d5697586_0 <= 1
 -4 <= x_0 <= 5
 -4 <= x_1 <= 5
 -4 <= x_2 <= 5
Binaries
 z_G_2bx191a07b7d5697586_0_zi z_&_2bx152dc28e6f9c8f8a_0
 z_&_2bx152dc28e6f9c8f8a_0_zi z_predicate_2bx62d06a84c45d0584_0
 z_predicate_2bx62d06a84c45d0584_0_zi z_predicate_2dx37fcbeb2c1be772f_0
 z_predicate_2dx37fcbeb2c1be772f_0_zi z_&_2bx152dc28e6f9c8f8a_1
 z_&_2bx152dc28e6f9c8f8a_1_zi z_predicate_2bx62d06a84c45d0584_1
 z_predicate_2bx62d06a84c45d0584_1_zi z_predicate_2dx37fcbeb2c1be772f_1
 z_predicate_2dx37fcbeb2c1be772f_1_zi z_&_2bx152dc28e6f9c8f8a_2
 z_&_2bx152dc28e6f9c8f8a_2_zi z_predicate_2bx62d06a84c45d0584_2
 z_predicate_2bx62d06a84c45d0584_2_zi z_predicate_2dx37fcbeb2c1be772f_2
 z_predicate_2dx37fcbeb2c1be772f_2_zi
End
